db/data/257772409521164125271748431577775725169.z3.out
sat
-------------------
1275.788326782
